objective value:                                10350
t_x_1                                               1 	(obj:42)
t_x_2                                               1 	(obj:9)
t_x_3                                               1 	(obj:5)
t_x_4                                               1 	(obj:11)
t_x_11                                              1 	(obj:14)
t_x_12                                              1 	(obj:57)
t_x_16                                              1 	(obj:22)
t_x_17                                              1 	(obj:19)
t_x_19                                              1 	(obj:0)
t_x_24                                              1 	(obj:8)
t_x_25                                              1 	(obj:33)
t_x_28                                              1 	(obj:40)
t_x_33                                              1 	(obj:27)
t_x_34                                              1 	(obj:16)
t_x_36                                              1 	(obj:32)
t_x_38                                              1 	(obj:5)
t_x_40                                              1 	(obj:24)
t_x_41                                              1 	(obj:34)
t_x_44                                              1 	(obj:43)
t_x_46                                              1 	(obj:5)
t_x_49                                              1 	(obj:2)
t_x_50                                              1 	(obj:13)
t_x_52                                              1 	(obj:13)
t_x_53                                              1 	(obj:14)
t_x_59                                              1 	(obj:9)
t_x_64                                              1 	(obj:11)
t_x_65                                              1 	(obj:3)
t_x_69                                              1 	(obj:61)
t_x_70                                              1 	(obj:1)
t_x_75                                              1 	(obj:3)
t_x_76                                              1 	(obj:66)
t_x_78                                              1 	(obj:23)
t_x_80                                              1 	(obj:27)
t_x_82                                              1 	(obj:22)
t_x_83                                              1 	(obj:7)
t_x_93                                              1 	(obj:20)
t_x_94                                              1 	(obj:72)
t_x_96                                              1 	(obj:2)
t_x_97                                              1 	(obj:36)
t_x_105                                             1 	(obj:18)
t_x_111                                             1 	(obj:26)
t_x_114                                             1 	(obj:7)
t_x_116                                             1 	(obj:22)
t_x_124                                             1 	(obj:14)
t_x_126                                             1 	(obj:20)
t_x_133                                             1 	(obj:6)
t_x_137                                             1 	(obj:4)
t_x_139                                             1 	(obj:21)
t_x_149                                             1 	(obj:23)
t_x_151                                             1 	(obj:7)
t_x_169                                             1 	(obj:6)
t_x_170                                             1 	(obj:9)
t_x_172                                             1 	(obj:2)
t_x_180                                             1 	(obj:10)
t_x_182                                             1 	(obj:27)
t_x_187                                             1 	(obj:4)
t_x_189                                             1 	(obj:14)
t_x_197                                             1 	(obj:27)
t_x_198                                             1 	(obj:30)
t_x_201                                             1 	(obj:12)
t_x_204                                             1 	(obj:24)
t_x_206                                             1 	(obj:8)
t_x_208                                             1 	(obj:13)
t_x_209                                             1 	(obj:5)
t_x_211                                             1 	(obj:13)
t_x_212                                             1 	(obj:4)
t_x_214                                             1 	(obj:5)
t_x_216                                             1 	(obj:2)
t_x_217                                             1 	(obj:34)
t_x_218                                             1 	(obj:1)
t_x_224                                             1 	(obj:1)
t_x_227                                             1 	(obj:53)
t_x_236                                             1 	(obj:10)
t_x_238                                             1 	(obj:62)
t_x_240                                             1 	(obj:19)
t_x_249                                             1 	(obj:6)
t_x_254                                             1 	(obj:8)
t_x_255                                             1 	(obj:26)
t_x_256                                             1 	(obj:27)
t_x_260                                             1 	(obj:20)
t_x_266                                             1 	(obj:37)
t_x_268                                             1 	(obj:8)
t_x_269                                             1 	(obj:40)
t_x_275                                             1 	(obj:57)
t_x_276                                             1 	(obj:39)
t_x_283                                             1 	(obj:6)
t_x_285                                             1 	(obj:25)
t_x_286                                             1 	(obj:8)
t_x_294                                             1 	(obj:11)
t_x_297                                             1 	(obj:1)
t_x_300                                             1 	(obj:1)
t_x_304                                             1 	(obj:33)
t_x_310                                             1 	(obj:9)
t_x_313                                             1 	(obj:33)
t_x_314                                             1 	(obj:48)
t_x_316                                             1 	(obj:23)
t_x_317                                             1 	(obj:19)
t_x_319                                             1 	(obj:10)
t_x_320                                             1 	(obj:13)
t_x_321                                             1 	(obj:29)
t_x_323                                             1 	(obj:8)
t_x_324                                             1 	(obj:7)
t_x_325                                             1 	(obj:14)
t_x_326                                             1 	(obj:0)
t_x_328                                             1 	(obj:9)
t_x_330                                             1 	(obj:16)
t_x_333                                             1 	(obj:1)
t_x_336                                             1 	(obj:9)
t_x_338                                             1 	(obj:1)
t_x_339                                             1 	(obj:3)
t_x_343                                             1 	(obj:30)
t_x_344                                             1 	(obj:2)
t_x_347                                             1 	(obj:18)
t_x_351                                             1 	(obj:13)
t_x_354                                             1 	(obj:16)
t_x_355                                             1 	(obj:10)
t_x_356                                             1 	(obj:24)
t_x_360                                             1 	(obj:0)
t_x_364                                             1 	(obj:18)
t_x_368                                             1 	(obj:23)
t_x_369                                             1 	(obj:23)
t_x_370                                             1 	(obj:7)
t_x_371                                             1 	(obj:24)
t_x_374                                             1 	(obj:15)
t_x_379                                             1 	(obj:6)
t_x_380                                             1 	(obj:17)
t_x_382                                             1 	(obj:24)
t_x_387                                             1 	(obj:25)
t_x_388                                             1 	(obj:29)
t_x_389                                             1 	(obj:15)
t_x_395                                             1 	(obj:11)
t_x_396                                             1 	(obj:44)
t_x_403                                             1 	(obj:10)
t_x_409                                             1 	(obj:28)
t_x_410                                             1 	(obj:23)
t_x_415                                             1 	(obj:0)
t_x_417                                             1 	(obj:7)
t_x_418                                             1 	(obj:23)
t_x_421                                             1 	(obj:17)
t_x_424                                             1 	(obj:35)
t_x_425                                             1 	(obj:30)
t_x_431                                             1 	(obj:11)
t_x_436                                             1 	(obj:49)
t_x_444                                             1 	(obj:32)
t_x_452                                             1 	(obj:14)
t_x_454                                             1 	(obj:3)
t_x_455                                             1 	(obj:2)
t_x_457                                             1 	(obj:2)
t_x_462                                             1 	(obj:27)
t_x_465                                             1 	(obj:22)
t_x_467                                             1 	(obj:37)
t_x_470                                             1 	(obj:0)
t_x_472                                             1 	(obj:8)
t_x_473                                             1 	(obj:44)
t_x_478                                             1 	(obj:1)
t_x_481                                             1 	(obj:7)
t_x_484                                             1 	(obj:34)
t_x_489                                             1 	(obj:25)
t_x_490                                             1 	(obj:18)
t_x_501                                             1 	(obj:29)
t_x_509                                             1 	(obj:4)
t_x_510                                             1 	(obj:5)
t_x_518                                             1 	(obj:33)
t_x_520                                             1 	(obj:8)
t_x_522                                             1 	(obj:14)
t_x_537                                             1 	(obj:1)
t_x_539                                             1 	(obj:18)
t_x_541                                             1 	(obj:1)
t_x_547                                             1 	(obj:33)
t_x_549                                             1 	(obj:18)
t_x_550                                             1 	(obj:41)
t_x_553                                             1 	(obj:12)
t_x_554                                             1 	(obj:26)
t_x_557                                             1 	(obj:9)
t_x_560                                             1 	(obj:35)
t_x_561                                             1 	(obj:0)
t_x_568                                             1 	(obj:31)
t_x_570                                             1 	(obj:4)
t_x_572                                             1 	(obj:1)
t_x_573                                             1 	(obj:32)
t_x_576                                             1 	(obj:7)
t_x_585                                             1 	(obj:0)
t_x_588                                             1 	(obj:32)
t_x_592                                             1 	(obj:16)
t_x_597                                             1 	(obj:19)
t_x_602                                             1 	(obj:10)
t_x_605                                             1 	(obj:10)
t_x_606                                             1 	(obj:19)
t_x_608                                             1 	(obj:15)
t_x_609                                             1 	(obj:50)
t_x_613                                             1 	(obj:22)
t_x_615                                             1 	(obj:11)
t_x_616                                             1 	(obj:5)
t_x_617                                             1 	(obj:43)
t_x_620                                             1 	(obj:1)
t_x_621                                             1 	(obj:39)
t_x_623                                             1 	(obj:46)
t_x_631                                             1 	(obj:3)
t_x_635                                             1 	(obj:16)
t_x_639                                             1 	(obj:7)
t_x_641                                             1 	(obj:2)
t_x_647                                             1 	(obj:33)
t_x_653                                             1 	(obj:25)
t_x_657                                             1 	(obj:8)
t_x_670                                             1 	(obj:14)
t_x_677                                             1 	(obj:37)
t_x_678                                             1 	(obj:13)
t_x_690                                             1 	(obj:71)
t_x_691                                             1 	(obj:35)
t_x_697                                             1 	(obj:15)
t_x_698                                             1 	(obj:15)
t_x_699                                             1 	(obj:16)
t_x_702                                             1 	(obj:30)
t_x_704                                             1 	(obj:0)
t_x_705                                             1 	(obj:1)
t_x_707                                             1 	(obj:37)
t_x_711                                             1 	(obj:8)
t_x_713                                             1 	(obj:5)
t_x_715                                             1 	(obj:17)
t_x_716                                             1 	(obj:15)
t_x_719                                             1 	(obj:26)
t_x_721                                             1 	(obj:13)
t_x_726                                             1 	(obj:20)
t_x_728                                             1 	(obj:12)
t_x_733                                             1 	(obj:17)
t_x_734                                             1 	(obj:52)
t_x_738                                             1 	(obj:24)
t_x_744                                             1 	(obj:20)
t_x_746                                             1 	(obj:3)
t_x_756                                             1 	(obj:32)
t_x_760                                             1 	(obj:32)
t_x_761                                             1 	(obj:34)
t_x_762                                             1 	(obj:11)
t_x_765                                             1 	(obj:4)
t_x_766                                             1 	(obj:19)
t_x_767                                             1 	(obj:23)
t_x_769                                             1 	(obj:16)
t_x_771                                             1 	(obj:23)
t_x_773                                             1 	(obj:9)
t_x_774                                             1 	(obj:1)
t_x_776                                             1 	(obj:31)
t_x_782                                             1 	(obj:17)
t_x_783                                             1 	(obj:18)
t_x_799                                             1 	(obj:14)
t_x_801                                             1 	(obj:8)
t_x_803                                             1 	(obj:43)
t_x_806                                             1 	(obj:5)
t_x_810                                             1 	(obj:19)
t_x_811                                             1 	(obj:1)
t_x_813                                             1 	(obj:18)
t_x_815                                             1 	(obj:39)
t_x_816                                             1 	(obj:25)
t_x_820                                             1 	(obj:10)
t_x_825                                             1 	(obj:34)
t_x_837                                             1 	(obj:36)
t_x_839                                             1 	(obj:1)
t_x_841                                             1 	(obj:18)
t_x_845                                             1 	(obj:2)
t_x_851                                             1 	(obj:26)
t_x_854                                             1 	(obj:4)
t_x_858                                             1 	(obj:27)
t_x_863                                             1 	(obj:3)
t_x_866                                             1 	(obj:11)
t_x_867                                             1 	(obj:20)
t_x_870                                             1 	(obj:1)
t_x_874                                             1 	(obj:2)
t_x_878                                             1 	(obj:15)
t_x_881                                             1 	(obj:27)
t_x_887                                             1 	(obj:15)
t_x_889                                             1 	(obj:5)
t_x_890                                             1 	(obj:30)
t_x_891                                             1 	(obj:23)
t_x_893                                             1 	(obj:22)
t_x_897                                             1 	(obj:33)
t_x_901                                             1 	(obj:1)
t_x_904                                             1 	(obj:9)
t_x_907                                             1 	(obj:15)
t_x_910                                             1 	(obj:16)
t_x_920                                             1 	(obj:13)
t_x_926                                             1 	(obj:23)
t_x_929                                             1 	(obj:13)
t_x_932                                             1 	(obj:0)
t_x_938                                             1 	(obj:35)
t_x_946                                             1 	(obj:17)
t_x_948                                             1 	(obj:46)
t_x_952                                             1 	(obj:2)
t_x_954                                             1 	(obj:2)
t_x_955                                             1 	(obj:18)
t_x_961                                             1 	(obj:2)
t_x_970                                             1 	(obj:8)
t_x_974                                             1 	(obj:17)
t_x_976                                             1 	(obj:16)
t_x_980                                             1 	(obj:4)
t_x_983                                             1 	(obj:17)
t_x_985                                             1 	(obj:39)
t_x_990                                             1 	(obj:3)
t_x_991                                             1 	(obj:8)
t_x_993                                             1 	(obj:5)
t_x_996                                             1 	(obj:45)
t_x_998                                             1 	(obj:4)
t_x_999                                             1 	(obj:6)
t_x_1000                                            1 	(obj:11)
t_x_1001                                            1 	(obj:7)
t_x_1006                                            1 	(obj:58)
t_x_1007                                            1 	(obj:17)
t_x_1011                                            1 	(obj:13)
t_x_1015                                            1 	(obj:14)
t_x_1020                                            1 	(obj:6)
t_x_1021                                            1 	(obj:2)
t_x_1030                                            1 	(obj:14)
t_x_1031                                            1 	(obj:38)
t_x_1032                                            1 	(obj:44)
t_x_1041                                            1 	(obj:10)
t_x_1043                                            1 	(obj:4)
t_x_1044                                            1 	(obj:0)
t_x_1051                                            1 	(obj:5)
t_x_1052                                            1 	(obj:35)
t_x_1053                                            1 	(obj:10)
t_x_1060                                            1 	(obj:9)
t_x_1063                                            1 	(obj:0)
t_x_1068                                            1 	(obj:20)
t_x_1075                                            1 	(obj:3)
t_x_1078                                            1 	(obj:9)
t_x_1082                                            1 	(obj:15)
t_x_1083                                            1 	(obj:32)
t_x_1091                                            1 	(obj:35)
t_x_1101                                            1 	(obj:12)
t_x_1102                                            1 	(obj:19)
t_x_1110                                            1 	(obj:19)
t_x_1111                                            1 	(obj:4)
t_x_1113                                            1 	(obj:15)
t_x_1118                                            1 	(obj:2)
t_x_1120                                            1 	(obj:2)
t_x_1130                                            1 	(obj:22)
t_x_1134                                            1 	(obj:20)
t_x_1140                                            1 	(obj:6)
t_x_1148                                            1 	(obj:38)
t_x_1152                                            1 	(obj:21)
t_x_1154                                            1 	(obj:10)
t_x_1155                                            1 	(obj:23)
t_x_1156                                            1 	(obj:14)
t_x_1160                                            1 	(obj:19)
t_x_1166                                            1 	(obj:30)
t_x_1171                                            1 	(obj:49)
t_x_1174                                            1 	(obj:23)
t_x_1175                                            1 	(obj:1)
t_x_1179                                            1 	(obj:11)
t_x_1183                                            1 	(obj:36)
t_x_1185                                            1 	(obj:1)
t_x_1187                                            1 	(obj:28)
t_x_1189                                            1 	(obj:19)
t_x_1190                                            1 	(obj:4)
t_x_1195                                            1 	(obj:3)
t_x_1200                                            1 	(obj:26)
t_x_1201                                            1 	(obj:18)
t_x_1202                                            1 	(obj:11)
t_x_1204                                            1 	(obj:3)
t_x_1207                                            1 	(obj:17)
t_x_1210                                            1 	(obj:44)
t_x_1217                                            1 	(obj:19)
t_x_1220                                            1 	(obj:5)
t_x_1221                                            1 	(obj:23)
t_x_1222                                            1 	(obj:19)
t_x_1224                                            1 	(obj:32)
t_x_1226                                            1 	(obj:2)
t_x_1227                                            1 	(obj:2)
t_x_1230                                            1 	(obj:3)
t_x_1233                                            1 	(obj:15)
t_x_1235                                            1 	(obj:11)
t_x_1237                                            1 	(obj:38)
t_x_1239                                            1 	(obj:11)
t_x_1240                                            1 	(obj:32)
t_x_1244                                            1 	(obj:38)
t_x_1255                                            1 	(obj:31)
t_x_1257                                            1 	(obj:30)
t_x_1259                                            1 	(obj:2)
t_x_1263                                            1 	(obj:18)
t_x_1268                                            1 	(obj:3)
t_x_1272                                            1 	(obj:36)
t_x_1273                                            1 	(obj:2)
t_x_1278                                            1 	(obj:42)
t_x_1279                                            1 	(obj:23)
t_x_1281                                            1 	(obj:17)
t_x_1284                                            1 	(obj:35)
t_x_1285                                            1 	(obj:19)
t_x_1286                                            1 	(obj:66)
t_x_1292                                            1 	(obj:47)
t_x_1293                                            1 	(obj:22)
t_x_1296                                            1 	(obj:6)
t_x_1301                                            1 	(obj:10)
t_x_1312                                            1 	(obj:2)
t_x_1317                                            1 	(obj:51)
t_x_1319                                            1 	(obj:0)
t_x_1322                                            1 	(obj:35)
t_x_1327                                            1 	(obj:3)
t_x_1328                                            1 	(obj:17)
t_x_1330                                            1 	(obj:31)
t_x_1331                                            1 	(obj:1)
t_x_1344                                            1 	(obj:7)
t_x_1345                                            1 	(obj:5)
t_x_1346                                            1 	(obj:5)
t_x_1347                                            1 	(obj:14)
t_x_1350                                            1 	(obj:4)
t_x_1353                                            1 	(obj:8)
t_x_1355                                            1 	(obj:5)
t_x_1357                                            1 	(obj:9)
t_x_1361                                            1 	(obj:29)
t_x_1368                                            1 	(obj:0)
t_x_1374                                            1 	(obj:9)
t_x_1377                                            1 	(obj:7)
t_x_1378                                            1 	(obj:11)
t_x_1385                                            1 	(obj:0)
t_x_1389                                            1 	(obj:8)
t_x_1393                                            1 	(obj:42)
t_x_1397                                            1 	(obj:49)
t_x_1398                                            1 	(obj:39)
t_x_1399                                            1 	(obj:24)
t_x_1405                                            1 	(obj:19)
t_x_1410                                            1 	(obj:8)
t_x_1414                                            1 	(obj:10)
t_x_1415                                            1 	(obj:26)
t_x_1419                                            1 	(obj:21)
t_x_1420                                            1 	(obj:17)
t_x_1422                                            1 	(obj:12)
t_x_1425                                            1 	(obj:46)
t_x_1426                                            1 	(obj:20)
t_x_1428                                            1 	(obj:13)
t_x_1434                                            1 	(obj:30)
t_x_1435                                            1 	(obj:25)
t_x_1437                                            1 	(obj:23)
t_x_1438                                            1 	(obj:0)
t_x_1447                                            1 	(obj:27)
t_x_1452                                            1 	(obj:13)
t_x_1453                                            1 	(obj:41)
t_x_1456                                            1 	(obj:19)
t_x_1461                                            1 	(obj:5)
t_x_1462                                            1 	(obj:27)
t_x_1463                                            1 	(obj:32)
t_x_1464                                            1 	(obj:17)
t_x_1471                                            1 	(obj:30)
t_x_1472                                            1 	(obj:46)
t_x_1473                                            1 	(obj:43)
t_x_1479                                            1 	(obj:10)
t_x_1480                                            1 	(obj:19)
t_x_1482                                            1 	(obj:0)
t_x_1488                                            1 	(obj:2)
t_x_1490                                            1 	(obj:7)
t_x_1491                                            1 	(obj:8)
t_x_1494                                            1 	(obj:4)
t_x_1496                                            1 	(obj:17)
t_x_1498                                            1 	(obj:58)
t_x_1500                                            1 	(obj:4)
t_x_1502                                            1 	(obj:17)
t_x_1507                                            1 	(obj:18)
t_x_1509                                            1 	(obj:34)
t_x_1512                                            1 	(obj:5)
t_x_1519                                            1 	(obj:55)
t_x_1523                                            1 	(obj:37)
t_x_1530                                            1 	(obj:35)
t_x_1533                                            1 	(obj:42)
t_x_1534                                            1 	(obj:7)
t_x_1538                                            1 	(obj:4)
t_x_1540                                            1 	(obj:3)
t_x_1545                                            1 	(obj:1)
t_x_1547                                            1 	(obj:37)
t_x_1550                                            1 	(obj:0)
t_x_1552                                            1 	(obj:0)
t_x_1562                                            1 	(obj:4)
t_x_1565                                            1 	(obj:8)
t_x_1566                                            1 	(obj:1)
t_x_1567                                            1 	(obj:9)
t_x_1573                                            1 	(obj:14)
t_x_1578                                            1 	(obj:30)
t_x_1580                                            1 	(obj:1)
t_x_1586                                            1 	(obj:10)
t_x_1603                                            1 	(obj:44)
t_x_1609                                            1 	(obj:2)
t_x_1611                                            1 	(obj:10)
t_x_1616                                            1 	(obj:4)
t_x_1617                                            1 	(obj:9)
t_x_1621                                            1 	(obj:3)
t_x_1625                                            1 	(obj:0)
t_x_1626                                            1 	(obj:21)
t_x_1628                                            1 	(obj:28)
t_x_1631                                            1 	(obj:18)
t_x_1636                                            1 	(obj:25)
t_x_1639                                            1 	(obj:18)
t_x_1644                                            1 	(obj:17)
t_x_1649                                            1 	(obj:4)
t_x_1654                                            1 	(obj:4)
t_x_1657                                            1 	(obj:7)
t_x_1659                                            1 	(obj:2)
t_x_1660                                            1 	(obj:18)
t_x_1662                                            1 	(obj:6)
t_x_1679                                            1 	(obj:39)
t_x_1684                                            1 	(obj:43)
t_x_1691                                            1 	(obj:23)
t_x_1692                                            1 	(obj:3)
t_x_1701                                            1 	(obj:25)
t_x_1704                                            1 	(obj:27)
t_x_1709                                            1 	(obj:25)
t_x_1710                                            1 	(obj:0)
t_x_1714                                            1 	(obj:22)
t_x_1724                                            1 	(obj:34)
t_x_1730                                            1 	(obj:19)
t_x_1742                                            1 	(obj:21)
t_x_1743                                            1 	(obj:0)
t_x_1746                                            1 	(obj:37)
t_x_1747                                            1 	(obj:50)
t_x_1749                                            1 	(obj:22)
t_x_1750                                            1 	(obj:16)
t_x_1753                                            1 	(obj:42)
t_x_1760                                            1 	(obj:12)
t_x_1761                                            1 	(obj:23)
t_x_1766                                            1 	(obj:10)
t_x_1767                                            1 	(obj:23)
t_x_1768                                            1 	(obj:33)
t_x_1769                                            1 	(obj:1)
t_x_1773                                            1 	(obj:20)
t_x_1775                                            1 	(obj:11)
t_x_1779                                            1 	(obj:3)
t_x_1781                                            1 	(obj:11)
t_x_1783                                            1 	(obj:2)
t_x_1786                                            1 	(obj:4)
t_x_1797                                            1 	(obj:24)
t_x_1804                                            1 	(obj:40)
t_x_1807                                            1 	(obj:12)
t_x_1812                                            1 	(obj:14)
t_x_1814                                            1 	(obj:38)
t_x_1817                                            1 	(obj:19)
t_x_1822                                            1 	(obj:11)
t_x_1823                                            1 	(obj:0)
t_x_1825                                            1 	(obj:51)
t_x_1826                                            1 	(obj:5)
t_x_1834                                            1 	(obj:27)
t_x_1835                                            1 	(obj:17)
t_x_1837                                            1 	(obj:24)
t_x_1838                                            1 	(obj:5)
t_x_1839                                            1 	(obj:25)
t_x_1843                                            1 	(obj:5)
t_x_1846                                            1 	(obj:5)
t_x_1848                                            1 	(obj:2)
t_x_1851                                            1 	(obj:7)
t_x_1855                                            1 	(obj:13)
t_x_1856                                            1 	(obj:19)
t_x_1864                                            1 	(obj:28)
t_x_1866                                            1 	(obj:5)
t_x_1867                                            1 	(obj:19)
t_x_1873                                            1 	(obj:37)
t_x_1874                                            1 	(obj:19)
t_x_1877                                            1 	(obj:13)
t_x_1879                                            1 	(obj:38)
t_x_1882                                            1 	(obj:5)
t_x_1886                                            1 	(obj:12)
t_x_1887                                            1 	(obj:48)
t_x_1900                                            1 	(obj:3)
t_x_1903                                            1 	(obj:32)
t_x_1904                                            1 	(obj:5)
t_x_1910                                            1 	(obj:23)
t_x_1927                                            1 	(obj:10)
t_x_1931                                            1 	(obj:0)
t_x_1932                                            1 	(obj:29)
t_x_1935                                            1 	(obj:13)
t_x_1936                                            1 	(obj:6)
t_x_1940                                            1 	(obj:8)
t_x_1941                                            1 	(obj:4)
t_x_1951                                            1 	(obj:0)
t_x_1952                                            1 	(obj:26)
t_x_1953                                            1 	(obj:0)
t_x_1957                                            1 	(obj:9)
t_x_1958                                            1 	(obj:22)
t_x_1962                                            1 	(obj:24)
t_x_1963                                            1 	(obj:7)
t_x_1964                                            1 	(obj:24)
t_x_1965                                            1 	(obj:10)
t_x_1968                                            1 	(obj:16)
t_x_1977                                            1 	(obj:5)
t_x_1979                                            1 	(obj:30)
t_x_1981                                            1 	(obj:21)
t_x_1984                                            1 	(obj:10)
t_x_1993                                            1 	(obj:6)
t_x_1996                                            1 	(obj:30)
